ciphers.morse_code_implementation/5_sat.smt2
(set-logic ALL)
(declare-const message_VAR String)
(assert (not (< (str.len message_VAR) 0)))
(assert (not (str.contains message_VAR " ")))
(assert (not (< (str.len message_VAR) 0)))
(assert (= (+ 0 (str.indexof message_VAR " " 0)) (- 1)))
(assert (not (not (= message_VAR "/"))))
(check-sat)
(get-value (message_VAR))
